;; Original file: term_358.smt2
(set-logic HORN)
(declare-fun starexecinv1 (Real Real Real) Bool)

(assert (forall ((|XXX0prime| Real) (|gh0prime| Real) (|gh1prime| Real))
  (let ((a!1 (> |gh0prime| (* (+ 0 (- 1)) |XXX0prime|)))
        (a!2 (> |gh1prime| (* (+ 0 (- 1)) |XXX0prime|))))
    (=> (and true
             (> |XXX0prime| (+ 0 0))
             (> |gh0prime| |XXX0prime|)
             a!1
             (> |gh1prime| |XXX0prime|)
             a!2)
        (starexecinv1 |XXX0prime| |gh0prime| |gh1prime|)))))
(assert (forall ((|XXX0| Real)
         (gh0 Real)
         (gh1 Real)
         (|XXX0prime| Real)
         (|gh1prime| Real)
         (|gh0prime| Real))
  (let ((a!1 (and (= |gh1prime| (- gh1 (+ 0 1)))
                  (> gh1 (+ 0 0))
                  (= |gh0prime| gh0)))
        (a!2 (> |gh1prime| (* (+ 0 (- 1)) |XXX0prime|))))
  (let ((a!3 (and (= |gh0prime| (- gh0 (+ 0 1)))
                  (> |gh1prime| |XXX0prime|)
                  a!2
                  (<= gh1 (+ 0 0)))))
  (let ((a!4 (and (starexecinv1 |XXX0| gh0 gh1)
                  (not (= |XXX0| (+ 0 0)))
                  (= |XXX0prime| (- |XXX0| (+ 0 1)))
                  (or a!1 a!3)
                  (>= (* (+ 0 1) |XXX0|) (+ 0 0)))))
    (=> a!4 (starexecinv1 |XXX0prime| |gh0prime| |gh1prime|)))))))
(assert (forall ((|XXX0| Real) (gh0 Real) (gh1 Real) )
  (let ((a!1 (and (starexecinv1 |XXX0| gh0 gh1)
                  (not (= |XXX0| (+ 0 0)))
                  (< gh0 (+ 0 0))
                  (>= (* (+ 0 1) |XXX0|) (+ 0 0)))))
    (=> a!1 false))))
(check-sat)
